NAME          DISTILLATION_DUAL
OBJSENSE
 MAX
ROWS
 L  C1
 L  C2
 N  RESOURCE
COLUMNS
    P1        C1            2.0
    P1        C2            2.0
    P1        RESOURCE      7.0
    P2        C1            3.0
    P2        C2            4.0
    P2        RESOURCE     12.0
    P3        C1            2.0
    P3        C2            1.0
    P3        RESOURCE      6.0
RHS
    COSTS     C1            8.0
    COSTS     C2           10.0
ENDATA
